Solver command line: ['/opt/sw/arch/easybuild/2018b/software/CPLEX/12.9-GCCcore-8.2.0/cplex/bin/x86-64_linux/cplex']


Welcome to IBM(R) ILOG(R) CPLEX(R) Interactive Optimizer 12.9.0.0
  with Simplex, Mixed Integer & Barrier Optimizers
5725-A06 5725-A29 5724-Y48 5724-Y49 5724-Y54 5724-Y55 5655-Y21
Copyright IBM Corp. 1988, 2019.  All Rights Reserved.

Type 'help' for a list of available commands.
Type 'help' followed by a command name for more
information on commands.

CPLEX> Logfile 'cplex.log' closed.
Logfile 'obj_3_6.log' open.
CPLEX> New value for default parallel thread count: 16
CPLEX> Problem '/localscratch/arosati/70372665/tmpyaau_r42.pyomo.lp' read.
Read time = 0.00 sec. (0.07 ticks)
CPLEX> MIP start file '/localscratch/arosati/70372665/tmpwnocutbg.cplex.mst' read.
CPLEX> Problem name         : /localscratch/arosati/70372665/tmpyaau_r42.pyomo.lp
Objective sense      : Minimize
Variables            :     585  [Nneg: 1,  General Integer: 584]
Objective nonzeros   :      37
Linear constraints   :     298  [Less: 225,  Equal: 73]
  Nonzeros           :    3354
  RHS nonzeros       :     193

Variables            : Min LB: 0.000000         Max UB: 1.000000       
Objective nonzeros   : Min   : 1.000000         Max   : 6.000000       
Linear constraints   :
  Nonzeros           : Min   : 1.000000         Max   : 90.00000       
  RHS nonzeros       : Min   : 1.000000         Max   : 12.00000       
CPLEX> CPXPARAM_Threads                                 16
1 of 1 MIP starts provided solutions.
MIP start 'm1' defined initial solution with objective 6.0000.
Tried aggregator 1 time.
MIP Presolve eliminated 109 rows and 73 columns.
MIP Presolve modified 480 coefficients.
Reduced MIP has 188 rows, 512 columns, and 1772 nonzeros.
Reduced MIP has 512 binaries, 0 generals, 0 SOSs, and 0 indicators.
Presolve time = 0.00 sec. (1.83 ticks)
Probing time = 0.00 sec. (1.38 ticks)
Tried aggregator 1 time.
Reduced MIP has 188 rows, 512 columns, and 1772 nonzeros.
Reduced MIP has 512 binaries, 0 generals, 0 SOSs, and 0 indicators.
Presolve time = 0.00 sec. (1.91 ticks)
Probing time = 0.00 sec. (1.39 ticks)
Clique table members: 1036.
MIP emphasis: balance optimality and feasibility.
MIP search method: dynamic search.
Parallel mode: deterministic, using up to 16 threads.
Root relaxation solution time = 0.00 sec. (0.85 ticks)

        Nodes                                         Cuts/
   Node  Left     Objective  IInf  Best Integer    Best Bound    ItCnt     Gap

*     0+    0                            6.0000       -6.0000           200.00%
      0     0        0.0000    10        6.0000        0.0000      106  100.00%
*     0+    0                            0.0000        0.0000             0.00%
      0     0        cutoff              0.0000        0.0000      106    0.00%
Elapsed time = 0.19 sec. (11.69 ticks, tree = 0.01 MB, solutions = 2)

Root node processing (before b&c):
  Real time             =    0.19 sec. (11.72 ticks)
Parallel b&c, 16 threads:
  Real time             =    0.00 sec. (0.00 ticks)
  Sync time (average)   =    0.00 sec.
  Wait time (average)   =    0.00 sec.
                          ------------
Total (root+branch&cut) =    0.19 sec. (11.72 ticks)

Solution pool: 2 solutions saved.

MIP - Integer optimal solution:  Objective =  0.0000000000e+00
Solution time =    0.19 sec.  Iterations = 106  Nodes = 0
Deterministic time = 11.72 ticks  (60.37 ticks/sec)

CPLEX> Incumbent solution written to file '/localscratch/arosati/70372665/tmp940i4o3t.cplex.sol'.
CPLEX> 
